(set-logic QF_S)
(set-option :strings-exp true)
(set-option :produce-models true)
(declare-fun sigmaStar_0 () String)
(declare-fun literal_5 () String)
(assert (= literal_5 "\x3c\x73\x70\x61\x6e\x20\x63\x6c\x61\x73\x73\x3d\x22\x74\x69\x74\x6c\x65\x22\x3e\x70\x61\x67\x65\x3a\x3c\x2f\x73\x70\x61\x6e\x3e"))
(assert (str.in.re literal_5 (re.++ (re.* re.allchar) (re.++ (str.to.re "\x5c\x3c\x53\x43\x52\x49\x50\x54") (re.* re.allchar)))))
(check-sat)
(get-model)
